54	7	100
0	0	0
24	48	24
-44	52	9
-12	88	15
8	6	17
26	10	2
-12	34	19
26	18	10
-42	78	17
8	82	20
8	38	16
-12	62	8
-44	56	12
-16	56	3
-40	48	23
10	32	4
-8	18	23
16	58	20
28	2	2
-40	78	19
16	20	2
24	90	23
-18	88	23
14	20	5
-60	38	12
-54	2	15
20	64	9
-38	52	13
20	10	18
16	30	16
-12	-2	7
-40	88	6
-20	32	2
10	86	8
-30	8	2
8	28	2
30	42	4
-48	64	13
4	70	18
30	22	9
-52	80	19
-46	14	3
-54	32	14
0	6	19
-2	78	21
24	64	4
-46	24	6
-60	8	22
-60	78	13
24	26	10
34	20	18
-56	28	5
-10	6	9
-10	80	36
